Maximize 
+ C(1) + C(2) + C(3) + C(4) + C(5) + C(6) + C(7) + C(8) + C(9) + C(10) + C(11) + C(12) + C(13) + C(14) + C(15) + C(16) + C(17) + C(18) + C(19) + C(20) + C(21) + C(22) + C(23) + C(24) + C(25) + C(26) + C(27) + C(28) + C(29) + C(30) + C(31) + C(32) + C(33) + C(34) + C(35) + C(36) + C(37) + C(38) + C(39) + C(40) + C(41) + C(42) + C(43) + C(44) + C(45) + C(46) + C(47) + C(48) + C(49) + C(50) + C(51) + C(52) + C(53) + C(54) + C(55) + C(56) + C(57) + C(58) + C(59) + C(60) + C(61) + C(62) + C(63) + C(64) + C(65) + C(66) + C(67) + C(68) + C(69) + C(70) + C(71) + C(72) + C(73) + C(74) + C(75) + C(76) + C(77) + C(78) + C(79) + C(80) + C(81) + C(82) + C(83) + C(84) + C(85) + C(86) + C(87) + C(88) + C(89) + C(90) + C(91) + C(92) + C(93) + C(94) + C(95) + C(96) + C(97) + C(98) + C(99) + C(100) + C(101) + C(102) + C(103) + C(104) + C(105) + C(106) + C(107) + C(108) + C(109) + C(110) + C(111) + C(112) + C(113) + C(114) + C(115) + C(116) + C(117) + C(118) + C(119) + C(120) + C(121) + C(122) + C(123) + C(124) + C(125) + C(126) + C(127) + C(128) + C(129) + C(130) + C(131) + C(132) + C(133) + C(134) + C(135) + C(136) + C(137) + C(138) + C(139) + C(140) + C(141) + C(142) + C(143) + C(144) + C(145) + C(146) + C(147) + C(148) + C(149) + C(150) + C(151) + C(152) + C(153) + C(154) + C(155) + C(156) + C(157) + C(158) + C(159) + C(160) + C(161) + C(162) + C(163) 
such that 

C(1) + C(3) <= 1
C(1) + C(13) <= 1
C(1) + C(14) <= 1
C(1) + C(15) <= 1
C(1) + C(19) <= 1
C(1) + C(34) <= 1
C(1) + C(42) <= 1
C(1) + C(53) <= 1
C(1) + C(60) <= 1
C(1) + C(65) <= 1
C(1) + C(72) <= 1
C(1) + C(82) <= 1
C(1) + C(83) <= 1
C(1) + C(84) <= 1
C(1) + C(92) <= 1
C(1) + C(102) <= 1
C(1) + C(137) <= 1
C(1) + C(144) <= 1
C(1) + C(146) <= 1
C(1) + C(156) <= 1
C(2) + C(3) <= 1
C(2) + C(27) <= 1
C(2) + C(31) <= 1
C(2) + C(33) <= 1
C(2) + C(37) <= 1
C(2) + C(42) <= 1
C(2) + C(53) <= 1
C(2) + C(57) <= 1
C(2) + C(71) <= 1
C(2) + C(74) <= 1
C(2) + C(79) <= 1
C(2) + C(128) <= 1
C(2) + C(129) <= 1
C(2) + C(130) <= 1
C(2) + C(141) <= 1
C(2) + C(144) <= 1
C(2) + C(151) <= 1
C(2) + C(157) <= 1
C(2) + C(162) <= 1
C(3) + C(12) <= 1
C(3) + C(19) <= 1
C(3) + C(32) <= 1
C(3) + C(46) <= 1
C(3) + C(53) <= 1
C(3) + C(57) <= 1
C(3) + C(64) <= 1
C(3) + C(76) <= 1
C(3) + C(83) <= 1
C(3) + C(87) <= 1
C(3) + C(94) <= 1
C(3) + C(98) <= 1
C(3) + C(103) <= 1
C(3) + C(116) <= 1
C(3) + C(133) <= 1
C(3) + C(137) <= 1
C(3) + C(142) <= 1
C(3) + C(152) <= 1
C(3) + C(157) <= 1
C(4) + C(9) <= 1
C(4) + C(29) <= 1
C(4) + C(33) <= 1
C(4) + C(45) <= 1
C(4) + C(53) <= 1
C(4) + C(61) <= 1
C(4) + C(76) <= 1
C(4) + C(91) <= 1
C(4) + C(93) <= 1
C(4) + C(98) <= 1
C(4) + C(106) <= 1
C(4) + C(117) <= 1
C(4) + C(128) <= 1
C(4) + C(136) <= 1
C(4) + C(139) <= 1
C(4) + C(142) <= 1
C(4) + C(159) <= 1
C(5) + C(7) <= 1
C(5) + C(15) <= 1
C(5) + C(25) <= 1
C(5) + C(32) <= 1
C(5) + C(40) <= 1
C(5) + C(42) <= 1
C(5) + C(44) <= 1
C(5) + C(66) <= 1
C(5) + C(67) <= 1
C(5) + C(88) <= 1
C(5) + C(92) <= 1
C(5) + C(98) <= 1
C(5) + C(106) <= 1
C(5) + C(114) <= 1
C(5) + C(121) <= 1
C(5) + C(144) <= 1
C(5) + C(157) <= 1
C(5) + C(161) <= 1
C(6) + C(16) <= 1
C(6) + C(54) <= 1
C(6) + C(55) <= 1
C(6) + C(61) <= 1
C(6) + C(66) <= 1
C(6) + C(91) <= 1
C(6) + C(102) <= 1
C(6) + C(114) <= 1
C(6) + C(144) <= 1
C(7) + C(12) <= 1
C(7) + C(19) <= 1
C(7) + C(25) <= 1
C(7) + C(29) <= 1
C(7) + C(41) <= 1
C(7) + C(63) <= 1
C(7) + C(65) <= 1
C(7) + C(75) <= 1
C(7) + C(80) <= 1
C(7) + C(85) <= 1
C(7) + C(142) <= 1
C(7) + C(143) <= 1
C(7) + C(147) <= 1
C(7) + C(151) <= 1
C(7) + C(154) <= 1
C(7) + C(157) <= 1
C(7) + C(160) <= 1
C(8) + C(11) <= 1
C(8) + C(12) <= 1
C(8) + C(24) <= 1
C(8) + C(40) <= 1
C(8) + C(47) <= 1
C(8) + C(48) <= 1
C(8) + C(58) <= 1
C(8) + C(59) <= 1
C(8) + C(78) <= 1
C(8) + C(90) <= 1
C(8) + C(97) <= 1
C(8) + C(98) <= 1
C(8) + C(114) <= 1
C(8) + C(116) <= 1
C(8) + C(118) <= 1
C(8) + C(126) <= 1
C(8) + C(146) <= 1
C(8) + C(159) <= 1
C(8) + C(161) <= 1
C(9) + C(16) <= 1
C(9) + C(20) <= 1
C(9) + C(50) <= 1
C(9) + C(56) <= 1
C(9) + C(62) <= 1
C(9) + C(70) <= 1
C(9) + C(71) <= 1
C(9) + C(75) <= 1
C(9) + C(81) <= 1
C(9) + C(100) <= 1
C(9) + C(131) <= 1
C(9) + C(143) <= 1
C(9) + C(146) <= 1
C(9) + C(148) <= 1
C(9) + C(156) <= 1
C(9) + C(157) <= 1
C(10) + C(25) <= 1
C(10) + C(30) <= 1
C(10) + C(43) <= 1
C(10) + C(47) <= 1
C(10) + C(61) <= 1
C(10) + C(64) <= 1
C(10) + C(77) <= 1
C(10) + C(78) <= 1
C(10) + C(102) <= 1
C(10) + C(117) <= 1
C(10) + C(119) <= 1
C(10) + C(125) <= 1
C(10) + C(140) <= 1
C(10) + C(144) <= 1
C(10) + C(152) <= 1
C(10) + C(157) <= 1
C(11) + C(18) <= 1
C(11) + C(19) <= 1
C(11) + C(26) <= 1
C(11) + C(50) <= 1
C(11) + C(71) <= 1
C(11) + C(82) <= 1
C(11) + C(85) <= 1
C(11) + C(94) <= 1
C(11) + C(96) <= 1
C(11) + C(98) <= 1
C(11) + C(99) <= 1
C(11) + C(111) <= 1
C(11) + C(119) <= 1
C(11) + C(126) <= 1
C(11) + C(128) <= 1
C(11) + C(135) <= 1
C(11) + C(136) <= 1
C(11) + C(139) <= 1
C(11) + C(147) <= 1
C(11) + C(158) <= 1
C(11) + C(161) <= 1
C(12) + C(24) <= 1
C(12) + C(25) <= 1
C(12) + C(26) <= 1
C(12) + C(42) <= 1
C(12) + C(59) <= 1
C(12) + C(63) <= 1
C(12) + C(75) <= 1
C(12) + C(85) <= 1
C(12) + C(95) <= 1
C(12) + C(104) <= 1
C(12) + C(111) <= 1
C(12) + C(118) <= 1
C(12) + C(119) <= 1
C(12) + C(128) <= 1
C(12) + C(129) <= 1
C(12) + C(135) <= 1
C(12) + C(145) <= 1
C(13) + C(16) <= 1
C(13) + C(43) <= 1
C(13) + C(47) <= 1
C(13) + C(71) <= 1
C(13) + C(82) <= 1
C(13) + C(89) <= 1
C(13) + C(90) <= 1
C(13) + C(94) <= 1
C(13) + C(97) <= 1
C(13) + C(119) <= 1
C(13) + C(124) <= 1
C(13) + C(125) <= 1
C(13) + C(127) <= 1
C(13) + C(142) <= 1
C(13) + C(152) <= 1
C(13) + C(156) <= 1
C(13) + C(158) <= 1
C(14) + C(26) <= 1
C(14) + C(37) <= 1
C(14) + C(42) <= 1
C(14) + C(46) <= 1
C(14) + C(80) <= 1
C(14) + C(83) <= 1
C(14) + C(92) <= 1
C(14) + C(104) <= 1
C(14) + C(107) <= 1
C(14) + C(122) <= 1
C(14) + C(128) <= 1
C(14) + C(131) <= 1
C(14) + C(146) <= 1
C(14) + C(149) <= 1
C(14) + C(158) <= 1
C(15) + C(21) <= 1
C(15) + C(44) <= 1
C(15) + C(77) <= 1
C(15) + C(80) <= 1
C(15) + C(83) <= 1
C(15) + C(94) <= 1
C(15) + C(102) <= 1
C(15) + C(108) <= 1
C(15) + C(116) <= 1
C(15) + C(117) <= 1
C(15) + C(118) <= 1
C(15) + C(124) <= 1
C(15) + C(137) <= 1
C(15) + C(141) <= 1
C(15) + C(148) <= 1
C(15) + C(159) <= 1
C(16) + C(19) <= 1
C(16) + C(20) <= 1
C(16) + C(26) <= 1
C(16) + C(28) <= 1
C(16) + C(33) <= 1
C(16) + C(38) <= 1
C(16) + C(55) <= 1
C(16) + C(72) <= 1
C(16) + C(96) <= 1
C(16) + C(97) <= 1
C(16) + C(109) <= 1
C(16) + C(111) <= 1
C(16) + C(134) <= 1
C(16) + C(151) <= 1
C(16) + C(157) <= 1
C(17) + C(51) <= 1
C(17) + C(53) <= 1
C(17) + C(59) <= 1
C(17) + C(61) <= 1
C(17) + C(63) <= 1
C(17) + C(67) <= 1
C(17) + C(70) <= 1
C(17) + C(119) <= 1
C(17) + C(123) <= 1
C(17) + C(145) <= 1
C(17) + C(155) <= 1
C(18) + C(20) <= 1
C(18) + C(29) <= 1
C(18) + C(32) <= 1
C(18) + C(37) <= 1
C(18) + C(44) <= 1
C(18) + C(71) <= 1
C(18) + C(95) <= 1
C(18) + C(98) <= 1
C(18) + C(121) <= 1
C(18) + C(139) <= 1
C(18) + C(140) <= 1
C(18) + C(142) <= 1
C(18) + C(146) <= 1
C(18) + C(148) <= 1
C(18) + C(162) <= 1
C(18) + C(163) <= 1
C(19) + C(34) <= 1
C(19) + C(52) <= 1
C(19) + C(53) <= 1
C(19) + C(54) <= 1
C(19) + C(70) <= 1
C(19) + C(83) <= 1
C(19) + C(87) <= 1
C(19) + C(93) <= 1
C(19) + C(96) <= 1
C(19) + C(114) <= 1
C(19) + C(117) <= 1
C(19) + C(120) <= 1
C(19) + C(121) <= 1
C(19) + C(138) <= 1
C(19) + C(142) <= 1
C(19) + C(143) <= 1
C(19) + C(153) <= 1
C(19) + C(161) <= 1
C(20) + C(26) <= 1
C(20) + C(30) <= 1
C(20) + C(47) <= 1
C(20) + C(78) <= 1
C(20) + C(83) <= 1
C(20) + C(86) <= 1
C(20) + C(87) <= 1
C(20) + C(90) <= 1
C(20) + C(91) <= 1
C(20) + C(112) <= 1
C(20) + C(119) <= 1
C(20) + C(122) <= 1
C(20) + C(141) <= 1
C(20) + C(150) <= 1
C(20) + C(157) <= 1
C(20) + C(161) <= 1
C(21) + C(22) <= 1
C(21) + C(23) <= 1
C(21) + C(26) <= 1
C(21) + C(28) <= 1
C(21) + C(29) <= 1
C(21) + C(38) <= 1
C(21) + C(42) <= 1
C(21) + C(50) <= 1
C(21) + C(51) <= 1
C(21) + C(69) <= 1
C(21) + C(80) <= 1
C(21) + C(92) <= 1
C(21) + C(93) <= 1
C(21) + C(138) <= 1
C(21) + C(143) <= 1
C(21) + C(155) <= 1
C(22) + C(31) <= 1
C(22) + C(39) <= 1
C(22) + C(40) <= 1
C(22) + C(44) <= 1
C(22) + C(50) <= 1
C(22) + C(51) <= 1
C(22) + C(59) <= 1
C(22) + C(62) <= 1
C(22) + C(69) <= 1
C(22) + C(81) <= 1
C(22) + C(92) <= 1
C(22) + C(103) <= 1
C(22) + C(105) <= 1
C(22) + C(110) <= 1
C(22) + C(126) <= 1
C(22) + C(131) <= 1
C(22) + C(142) <= 1
C(22) + C(147) <= 1
C(22) + C(157) <= 1
C(22) + C(159) <= 1
C(23) + C(38) <= 1
C(23) + C(45) <= 1
C(23) + C(57) <= 1
C(23) + C(61) <= 1
C(23) + C(90) <= 1
C(23) + C(115) <= 1
C(23) + C(119) <= 1
C(23) + C(135) <= 1
C(23) + C(136) <= 1
C(23) + C(143) <= 1
C(23) + C(146) <= 1
C(23) + C(155) <= 1
C(24) + C(26) <= 1
C(24) + C(30) <= 1
C(24) + C(36) <= 1
C(24) + C(39) <= 1
C(24) + C(43) <= 1
C(24) + C(48) <= 1
C(24) + C(58) <= 1
C(24) + C(63) <= 1
C(24) + C(80) <= 1
C(24) + C(89) <= 1
C(24) + C(92) <= 1
C(24) + C(110) <= 1
C(24) + C(115) <= 1
C(24) + C(116) <= 1
C(24) + C(130) <= 1
C(24) + C(134) <= 1
C(24) + C(139) <= 1
C(24) + C(142) <= 1
C(24) + C(145) <= 1
C(24) + C(148) <= 1
C(24) + C(157) <= 1
C(24) + C(158) <= 1
C(25) + C(31) <= 1
C(25) + C(32) <= 1
C(25) + C(35) <= 1
C(25) + C(46) <= 1
C(25) + C(55) <= 1
C(25) + C(57) <= 1
C(25) + C(68) <= 1
C(25) + C(79) <= 1
C(25) + C(85) <= 1
C(25) + C(90) <= 1
C(25) + C(91) <= 1
C(25) + C(97) <= 1
C(25) + C(102) <= 1
C(25) + C(107) <= 1
C(25) + C(109) <= 1
C(25) + C(110) <= 1
C(25) + C(119) <= 1
C(25) + C(121) <= 1
C(25) + C(122) <= 1
C(25) + C(134) <= 1
C(25) + C(145) <= 1
C(25) + C(150) <= 1
C(26) + C(27) <= 1
C(26) + C(28) <= 1
C(26) + C(38) <= 1
C(26) + C(51) <= 1
C(26) + C(55) <= 1
C(26) + C(58) <= 1
C(26) + C(76) <= 1
C(26) + C(78) <= 1
C(26) + C(82) <= 1
C(26) + C(86) <= 1
C(26) + C(87) <= 1
C(26) + C(95) <= 1
C(26) + C(115) <= 1
C(26) + C(119) <= 1
C(26) + C(120) <= 1
C(26) + C(136) <= 1
C(26) + C(155) <= 1
C(27) + C(39) <= 1
C(27) + C(42) <= 1
C(27) + C(69) <= 1
C(27) + C(76) <= 1
C(27) + C(80) <= 1
C(27) + C(84) <= 1
C(27) + C(109) <= 1
C(27) + C(113) <= 1
C(27) + C(138) <= 1
C(27) + C(142) <= 1
C(27) + C(162) <= 1
C(28) + C(29) <= 1
C(28) + C(31) <= 1
C(28) + C(33) <= 1
C(28) + C(47) <= 1
C(28) + C(48) <= 1
C(28) + C(52) <= 1
C(28) + C(56) <= 1
C(28) + C(72) <= 1
C(28) + C(76) <= 1
C(28) + C(90) <= 1
C(28) + C(110) <= 1
C(28) + C(111) <= 1
C(28) + C(114) <= 1
C(28) + C(129) <= 1
C(28) + C(133) <= 1
C(28) + C(144) <= 1
C(28) + C(147) <= 1
C(28) + C(152) <= 1
C(28) + C(156) <= 1
C(29) + C(37) <= 1
C(29) + C(58) <= 1
C(29) + C(66) <= 1
C(29) + C(73) <= 1
C(29) + C(85) <= 1
C(29) + C(87) <= 1
C(29) + C(94) <= 1
C(29) + C(101) <= 1
C(29) + C(109) <= 1
C(29) + C(115) <= 1
C(29) + C(124) <= 1
C(29) + C(128) <= 1
C(29) + C(138) <= 1
C(29) + C(159) <= 1
C(29) + C(161) <= 1
C(29) + C(163) <= 1
C(30) + C(42) <= 1
C(30) + C(67) <= 1
C(30) + C(81) <= 1
C(30) + C(82) <= 1
C(30) + C(86) <= 1
C(30) + C(96) <= 1
C(30) + C(103) <= 1
C(30) + C(109) <= 1
C(30) + C(110) <= 1
C(30) + C(124) <= 1
C(30) + C(132) <= 1
C(30) + C(153) <= 1
C(30) + C(161) <= 1
C(31) + C(36) <= 1
C(31) + C(41) <= 1
C(31) + C(43) <= 1
C(31) + C(49) <= 1
C(31) + C(60) <= 1
C(31) + C(87) <= 1
C(31) + C(90) <= 1
C(31) + C(93) <= 1
C(31) + C(96) <= 1
C(31) + C(114) <= 1
C(31) + C(115) <= 1
C(31) + C(128) <= 1
C(31) + C(132) <= 1
C(31) + C(134) <= 1
C(31) + C(135) <= 1
C(31) + C(138) <= 1
C(31) + C(145) <= 1
C(31) + C(150) <= 1
C(31) + C(155) <= 1
C(31) + C(158) <= 1
C(32) + C(33) <= 1
C(32) + C(39) <= 1
C(32) + C(53) <= 1
C(32) + C(54) <= 1
C(32) + C(59) <= 1
C(32) + C(61) <= 1
C(32) + C(65) <= 1
C(32) + C(70) <= 1
C(32) + C(72) <= 1
C(32) + C(122) <= 1
C(32) + C(128) <= 1
C(32) + C(137) <= 1
C(32) + C(154) <= 1
C(32) + C(156) <= 1
C(33) + C(48) <= 1
C(33) + C(54) <= 1
C(33) + C(61) <= 1
C(33) + C(74) <= 1
C(33) + C(75) <= 1
C(33) + C(78) <= 1
C(33) + C(85) <= 1
C(33) + C(87) <= 1
C(33) + C(94) <= 1
C(33) + C(101) <= 1
C(33) + C(104) <= 1
C(33) + C(107) <= 1
C(33) + C(110) <= 1
C(33) + C(113) <= 1
C(33) + C(117) <= 1
C(33) + C(121) <= 1
C(33) + C(141) <= 1
C(33) + C(143) <= 1
C(33) + C(147) <= 1
C(33) + C(148) <= 1
C(33) + C(150) <= 1
C(33) + C(153) <= 1
C(33) + C(161) <= 1
C(34) + C(69) <= 1
C(34) + C(75) <= 1
C(34) + C(79) <= 1
C(34) + C(85) <= 1
C(34) + C(88) <= 1
C(34) + C(101) <= 1
C(34) + C(111) <= 1
C(34) + C(114) <= 1
C(34) + C(117) <= 1
C(34) + C(123) <= 1
C(34) + C(127) <= 1
C(34) + C(131) <= 1
C(34) + C(154) <= 1
C(34) + C(159) <= 1
C(35) + C(41) <= 1
C(35) + C(42) <= 1
C(35) + C(48) <= 1
C(35) + C(51) <= 1
C(35) + C(64) <= 1
C(35) + C(68) <= 1
C(35) + C(73) <= 1
C(35) + C(85) <= 1
C(35) + C(87) <= 1
C(35) + C(88) <= 1
C(35) + C(95) <= 1
C(35) + C(97) <= 1
C(35) + C(98) <= 1
C(35) + C(101) <= 1
C(35) + C(102) <= 1
C(35) + C(112) <= 1
C(35) + C(118) <= 1
C(35) + C(140) <= 1
C(35) + C(145) <= 1
C(35) + C(149) <= 1
C(35) + C(157) <= 1
C(35) + C(162) <= 1
C(36) + C(88) <= 1
C(36) + C(91) <= 1
C(36) + C(98) <= 1
C(36) + C(109) <= 1
C(36) + C(110) <= 1
C(36) + C(113) <= 1
C(36) + C(120) <= 1
C(36) + C(133) <= 1
C(36) + C(148) <= 1
C(36) + C(156) <= 1
C(36) + C(157) <= 1
C(36) + C(161) <= 1
C(37) + C(75) <= 1
C(37) + C(79) <= 1
C(37) + C(99) <= 1
C(37) + C(110) <= 1
C(37) + C(117) <= 1
C(37) + C(132) <= 1
C(37) + C(156) <= 1
C(37) + C(162) <= 1
C(38) + C(41) <= 1
C(38) + C(60) <= 1
C(38) + C(62) <= 1
C(38) + C(68) <= 1
C(38) + C(70) <= 1
C(38) + C(71) <= 1
C(38) + C(115) <= 1
C(38) + C(128) <= 1
C(38) + C(129) <= 1
C(38) + C(149) <= 1
C(39) + C(49) <= 1
C(39) + C(51) <= 1
C(39) + C(55) <= 1
C(39) + C(59) <= 1
C(39) + C(68) <= 1
C(39) + C(87) <= 1
C(39) + C(90) <= 1
C(39) + C(95) <= 1
C(39) + C(109) <= 1
C(39) + C(113) <= 1
C(39) + C(120) <= 1
C(39) + C(125) <= 1
C(39) + C(147) <= 1
C(40) + C(50) <= 1
C(40) + C(58) <= 1
C(40) + C(64) <= 1
C(40) + C(68) <= 1
C(40) + C(74) <= 1
C(40) + C(89) <= 1
C(40) + C(91) <= 1
C(40) + C(109) <= 1
C(40) + C(116) <= 1
C(40) + C(119) <= 1
C(40) + C(124) <= 1
C(40) + C(135) <= 1
C(40) + C(141) <= 1
C(40) + C(163) <= 1
C(41) + C(69) <= 1
C(41) + C(90) <= 1
C(41) + C(93) <= 1
C(41) + C(94) <= 1
C(41) + C(103) <= 1
C(41) + C(104) <= 1
C(41) + C(106) <= 1
C(41) + C(109) <= 1
C(41) + C(118) <= 1
C(41) + C(120) <= 1
C(41) + C(132) <= 1
C(41) + C(133) <= 1
C(41) + C(134) <= 1
C(42) + C(58) <= 1
C(42) + C(61) <= 1
C(42) + C(97) <= 1
C(42) + C(108) <= 1
C(42) + C(112) <= 1
C(42) + C(121) <= 1
C(42) + C(128) <= 1
C(42) + C(130) <= 1
C(42) + C(156) <= 1
C(43) + C(50) <= 1
C(43) + C(52) <= 1
C(43) + C(55) <= 1
C(43) + C(63) <= 1
C(43) + C(71) <= 1
C(43) + C(77) <= 1
C(43) + C(78) <= 1
C(43) + C(81) <= 1
C(43) + C(91) <= 1
C(43) + C(115) <= 1
C(43) + C(119) <= 1
C(43) + C(123) <= 1
C(43) + C(134) <= 1
C(43) + C(140) <= 1
C(43) + C(141) <= 1
C(43) + C(147) <= 1
C(43) + C(152) <= 1
C(43) + C(153) <= 1
C(44) + C(50) <= 1
C(44) + C(56) <= 1
C(44) + C(75) <= 1
C(44) + C(105) <= 1
C(44) + C(114) <= 1
C(44) + C(120) <= 1
C(44) + C(123) <= 1
C(44) + C(129) <= 1
C(44) + C(133) <= 1
C(44) + C(144) <= 1
C(44) + C(148) <= 1
C(44) + C(154) <= 1
C(44) + C(160) <= 1
C(45) + C(48) <= 1
C(45) + C(49) <= 1
C(45) + C(67) <= 1
C(45) + C(70) <= 1
C(45) + C(80) <= 1
C(45) + C(104) <= 1
C(45) + C(111) <= 1
C(45) + C(122) <= 1
C(45) + C(126) <= 1
C(45) + C(133) <= 1
C(45) + C(139) <= 1
C(45) + C(140) <= 1
C(45) + C(142) <= 1
C(45) + C(150) <= 1
C(45) + C(154) <= 1
C(45) + C(160) <= 1
C(46) + C(49) <= 1
C(46) + C(67) <= 1
C(46) + C(73) <= 1
C(46) + C(77) <= 1
C(46) + C(97) <= 1
C(46) + C(99) <= 1
C(46) + C(100) <= 1
C(46) + C(105) <= 1
C(46) + C(117) <= 1
C(46) + C(125) <= 1
C(46) + C(128) <= 1
C(46) + C(140) <= 1
C(46) + C(149) <= 1
C(46) + C(151) <= 1
C(46) + C(161) <= 1
C(47) + C(54) <= 1
C(47) + C(80) <= 1
C(47) + C(85) <= 1
C(47) + C(99) <= 1
C(47) + C(110) <= 1
C(47) + C(113) <= 1
C(47) + C(127) <= 1
C(47) + C(132) <= 1
C(47) + C(134) <= 1
C(47) + C(135) <= 1
C(47) + C(144) <= 1
C(48) + C(51) <= 1
C(48) + C(55) <= 1
C(48) + C(73) <= 1
C(48) + C(75) <= 1
C(48) + C(87) <= 1
C(48) + C(91) <= 1
C(48) + C(94) <= 1
C(48) + C(96) <= 1
C(48) + C(100) <= 1
C(48) + C(113) <= 1
C(48) + C(115) <= 1
C(48) + C(117) <= 1
C(48) + C(120) <= 1
C(48) + C(122) <= 1
C(48) + C(131) <= 1
C(48) + C(146) <= 1
C(49) + C(63) <= 1
C(49) + C(69) <= 1
C(49) + C(72) <= 1
C(49) + C(75) <= 1
C(49) + C(84) <= 1
C(49) + C(99) <= 1
C(49) + C(101) <= 1
C(49) + C(108) <= 1
C(49) + C(109) <= 1
C(49) + C(129) <= 1
C(49) + C(135) <= 1
C(49) + C(140) <= 1
C(49) + C(141) <= 1
C(49) + C(150) <= 1
C(49) + C(152) <= 1
C(49) + C(154) <= 1
C(49) + C(160) <= 1
C(49) + C(161) <= 1
C(50) + C(55) <= 1
C(50) + C(58) <= 1
C(50) + C(65) <= 1
C(50) + C(66) <= 1
C(50) + C(75) <= 1
C(50) + C(94) <= 1
C(50) + C(96) <= 1
C(50) + C(98) <= 1
C(50) + C(101) <= 1
C(50) + C(110) <= 1
C(50) + C(112) <= 1
C(50) + C(113) <= 1
C(50) + C(114) <= 1
C(50) + C(116) <= 1
C(50) + C(120) <= 1
C(50) + C(138) <= 1
C(50) + C(144) <= 1
C(50) + C(155) <= 1
C(50) + C(162) <= 1
C(50) + C(163) <= 1
C(51) + C(54) <= 1
C(51) + C(63) <= 1
C(51) + C(71) <= 1
C(51) + C(77) <= 1
C(51) + C(86) <= 1
C(51) + C(87) <= 1
C(51) + C(89) <= 1
C(51) + C(90) <= 1
C(51) + C(97) <= 1
C(51) + C(99) <= 1
C(51) + C(100) <= 1
C(51) + C(111) <= 1
C(51) + C(117) <= 1
C(51) + C(124) <= 1
C(51) + C(138) <= 1
C(51) + C(140) <= 1
C(51) + C(142) <= 1
C(51) + C(150) <= 1
C(51) + C(151) <= 1
C(51) + C(161) <= 1
C(52) + C(54) <= 1
C(52) + C(57) <= 1
C(52) + C(58) <= 1
C(52) + C(82) <= 1
C(52) + C(83) <= 1
C(52) + C(103) <= 1
C(52) + C(107) <= 1
C(52) + C(137) <= 1
C(52) + C(139) <= 1
C(52) + C(145) <= 1
C(52) + C(150) <= 1
C(53) + C(70) <= 1
C(53) + C(87) <= 1
C(53) + C(97) <= 1
C(53) + C(111) <= 1
C(53) + C(113) <= 1
C(53) + C(118) <= 1
C(53) + C(119) <= 1
C(53) + C(121) <= 1
C(53) + C(126) <= 1
C(53) + C(131) <= 1
C(53) + C(134) <= 1
C(54) + C(58) <= 1
C(54) + C(59) <= 1
C(54) + C(62) <= 1
C(54) + C(76) <= 1
C(54) + C(80) <= 1
C(54) + C(89) <= 1
C(54) + C(93) <= 1
C(54) + C(97) <= 1
C(54) + C(104) <= 1
C(54) + C(109) <= 1
C(54) + C(113) <= 1
C(54) + C(123) <= 1
C(54) + C(129) <= 1
C(54) + C(135) <= 1
C(54) + C(136) <= 1
C(54) + C(137) <= 1
C(54) + C(147) <= 1
C(54) + C(159) <= 1
C(55) + C(64) <= 1
C(55) + C(66) <= 1
C(55) + C(74) <= 1
C(55) + C(84) <= 1
C(55) + C(103) <= 1
C(55) + C(124) <= 1
C(55) + C(125) <= 1
C(55) + C(160) <= 1
C(55) + C(161) <= 1
C(56) + C(62) <= 1
C(56) + C(65) <= 1
C(56) + C(71) <= 1
C(56) + C(76) <= 1
C(56) + C(80) <= 1
C(56) + C(103) <= 1
C(56) + C(105) <= 1
C(56) + C(113) <= 1
C(56) + C(118) <= 1
C(56) + C(121) <= 1
C(56) + C(123) <= 1
C(56) + C(137) <= 1
C(56) + C(151) <= 1
C(56) + C(158) <= 1
C(56) + C(161) <= 1
C(57) + C(61) <= 1
C(57) + C(72) <= 1
C(57) + C(73) <= 1
C(57) + C(74) <= 1
C(57) + C(75) <= 1
C(57) + C(79) <= 1
C(57) + C(84) <= 1
C(57) + C(90) <= 1
C(57) + C(96) <= 1
C(57) + C(99) <= 1
C(57) + C(105) <= 1
C(57) + C(123) <= 1
C(57) + C(124) <= 1
C(57) + C(133) <= 1
C(57) + C(135) <= 1
C(57) + C(138) <= 1
C(57) + C(143) <= 1
C(57) + C(152) <= 1
C(57) + C(160) <= 1
C(58) + C(70) <= 1
C(58) + C(91) <= 1
C(58) + C(98) <= 1
C(58) + C(103) <= 1
C(58) + C(106) <= 1
C(58) + C(108) <= 1
C(58) + C(111) <= 1
C(58) + C(118) <= 1
C(58) + C(135) <= 1
C(58) + C(148) <= 1
C(58) + C(149) <= 1
C(58) + C(151) <= 1
C(59) + C(63) <= 1
C(59) + C(66) <= 1
C(59) + C(69) <= 1
C(59) + C(81) <= 1
C(59) + C(82) <= 1
C(59) + C(83) <= 1
C(59) + C(88) <= 1
C(59) + C(91) <= 1
C(59) + C(92) <= 1
C(59) + C(94) <= 1
C(59) + C(105) <= 1
C(59) + C(126) <= 1
C(59) + C(129) <= 1
C(59) + C(142) <= 1
C(59) + C(152) <= 1
C(59) + C(155) <= 1
C(60) + C(68) <= 1
C(60) + C(100) <= 1
C(60) + C(101) <= 1
C(60) + C(112) <= 1
C(60) + C(125) <= 1
C(60) + C(128) <= 1
C(60) + C(138) <= 1
C(60) + C(150) <= 1
C(60) + C(152) <= 1
C(61) + C(66) <= 1
C(61) + C(69) <= 1
C(61) + C(75) <= 1
C(61) + C(82) <= 1
C(61) + C(93) <= 1
C(61) + C(101) <= 1
C(61) + C(109) <= 1
C(61) + C(118) <= 1
C(61) + C(119) <= 1
C(61) + C(121) <= 1
C(61) + C(123) <= 1
C(61) + C(155) <= 1
C(62) + C(67) <= 1
C(62) + C(76) <= 1
C(62) + C(86) <= 1
C(62) + C(88) <= 1
C(62) + C(91) <= 1
C(62) + C(92) <= 1
C(62) + C(93) <= 1
C(62) + C(103) <= 1
C(62) + C(105) <= 1
C(62) + C(106) <= 1
C(62) + C(112) <= 1
C(62) + C(114) <= 1
C(62) + C(123) <= 1
C(62) + C(130) <= 1
C(62) + C(131) <= 1
C(62) + C(135) <= 1
C(62) + C(137) <= 1
C(63) + C(76) <= 1
C(63) + C(79) <= 1
C(63) + C(81) <= 1
C(63) + C(82) <= 1
C(63) + C(100) <= 1
C(63) + C(108) <= 1
C(63) + C(134) <= 1
C(63) + C(142) <= 1
C(63) + C(144) <= 1
C(63) + C(156) <= 1
C(63) + C(158) <= 1
C(63) + C(162) <= 1
C(64) + C(69) <= 1
C(64) + C(94) <= 1
C(64) + C(101) <= 1
C(64) + C(112) <= 1
C(64) + C(114) <= 1
C(64) + C(122) <= 1
C(64) + C(124) <= 1
C(64) + C(127) <= 1
C(64) + C(130) <= 1
C(64) + C(151) <= 1
C(64) + C(161) <= 1
C(64) + C(163) <= 1
C(65) + C(66) <= 1
C(65) + C(68) <= 1
C(65) + C(74) <= 1
C(65) + C(77) <= 1
C(65) + C(80) <= 1
C(65) + C(88) <= 1
C(65) + C(102) <= 1
C(65) + C(108) <= 1
C(65) + C(111) <= 1
C(65) + C(120) <= 1
C(65) + C(121) <= 1
C(65) + C(163) <= 1
C(66) + C(78) <= 1
C(66) + C(79) <= 1
C(66) + C(108) <= 1
C(66) + C(110) <= 1
C(66) + C(120) <= 1
C(66) + C(124) <= 1
C(66) + C(132) <= 1
C(66) + C(143) <= 1
C(66) + C(147) <= 1
C(66) + C(154) <= 1
C(66) + C(156) <= 1
C(67) + C(77) <= 1
C(67) + C(89) <= 1
C(67) + C(98) <= 1
C(67) + C(100) <= 1
C(67) + C(124) <= 1
C(67) + C(125) <= 1
C(67) + C(137) <= 1
C(67) + C(149) <= 1
C(67) + C(163) <= 1
C(68) + C(76) <= 1
C(68) + C(85) <= 1
C(68) + C(100) <= 1
C(68) + C(109) <= 1
C(68) + C(112) <= 1
C(68) + C(114) <= 1
C(68) + C(124) <= 1
C(68) + C(126) <= 1
C(68) + C(127) <= 1
C(68) + C(133) <= 1
C(68) + C(145) <= 1
C(68) + C(146) <= 1
C(68) + C(159) <= 1
C(69) + C(100) <= 1
C(69) + C(109) <= 1
C(69) + C(115) <= 1
C(69) + C(122) <= 1
C(69) + C(136) <= 1
C(69) + C(137) <= 1
C(69) + C(139) <= 1
C(69) + C(141) <= 1
C(69) + C(143) <= 1
C(69) + C(148) <= 1
C(69) + C(149) <= 1
C(69) + C(155) <= 1
C(69) + C(156) <= 1
C(69) + C(159) <= 1
C(69) + C(162) <= 1
C(70) + C(71) <= 1
C(70) + C(98) <= 1
C(70) + C(109) <= 1
C(70) + C(111) <= 1
C(70) + C(117) <= 1
C(70) + C(123) <= 1
C(70) + C(127) <= 1
C(70) + C(143) <= 1
C(70) + C(144) <= 1
C(70) + C(147) <= 1
C(70) + C(155) <= 1
C(71) + C(77) <= 1
C(71) + C(80) <= 1
C(71) + C(89) <= 1
C(71) + C(93) <= 1
C(71) + C(96) <= 1
C(71) + C(100) <= 1
C(71) + C(101) <= 1
C(71) + C(104) <= 1
C(71) + C(113) <= 1
C(71) + C(123) <= 1
C(71) + C(128) <= 1
C(71) + C(149) <= 1
C(72) + C(73) <= 1
C(72) + C(80) <= 1
C(72) + C(81) <= 1
C(72) + C(96) <= 1
C(72) + C(127) <= 1
C(72) + C(133) <= 1
C(72) + C(144) <= 1
C(72) + C(155) <= 1
C(73) + C(120) <= 1
C(73) + C(122) <= 1
C(73) + C(124) <= 1
C(73) + C(139) <= 1
C(73) + C(142) <= 1
C(73) + C(144) <= 1
C(73) + C(146) <= 1
C(73) + C(161) <= 1
C(73) + C(162) <= 1
C(74) + C(77) <= 1
C(74) + C(84) <= 1
C(74) + C(94) <= 1
C(74) + C(104) <= 1
C(74) + C(108) <= 1
C(74) + C(112) <= 1
C(74) + C(115) <= 1
C(74) + C(123) <= 1
C(74) + C(127) <= 1
C(74) + C(139) <= 1
C(74) + C(147) <= 1
C(74) + C(162) <= 1
C(75) + C(77) <= 1
C(75) + C(80) <= 1
C(75) + C(88) <= 1
C(75) + C(94) <= 1
C(75) + C(95) <= 1
C(75) + C(100) <= 1
C(75) + C(103) <= 1
C(75) + C(124) <= 1
C(75) + C(126) <= 1
C(75) + C(135) <= 1
C(75) + C(141) <= 1
C(75) + C(160) <= 1
C(75) + C(162) <= 1
C(76) + C(79) <= 1
C(76) + C(81) <= 1
C(76) + C(82) <= 1
C(76) + C(93) <= 1
C(76) + C(99) <= 1
C(76) + C(103) <= 1
C(76) + C(111) <= 1
C(76) + C(134) <= 1
C(76) + C(141) <= 1
C(76) + C(147) <= 1
C(76) + C(150) <= 1
C(76) + C(151) <= 1
C(76) + C(157) <= 1
C(76) + C(160) <= 1
C(76) + C(162) <= 1
C(77) + C(84) <= 1
C(77) + C(99) <= 1
C(77) + C(102) <= 1
C(77) + C(113) <= 1
C(77) + C(114) <= 1
C(77) + C(134) <= 1
C(77) + C(144) <= 1
C(77) + C(146) <= 1
C(77) + C(153) <= 1
C(77) + C(162) <= 1
C(78) + C(82) <= 1
C(78) + C(89) <= 1
C(78) + C(93) <= 1
C(78) + C(99) <= 1
C(78) + C(101) <= 1
C(78) + C(105) <= 1
C(78) + C(112) <= 1
C(78) + C(116) <= 1
C(78) + C(124) <= 1
C(78) + C(128) <= 1
C(78) + C(135) <= 1
C(78) + C(137) <= 1
C(78) + C(155) <= 1
C(79) + C(92) <= 1
C(79) + C(96) <= 1
C(79) + C(98) <= 1
C(79) + C(107) <= 1
C(79) + C(124) <= 1
C(79) + C(130) <= 1
C(79) + C(133) <= 1
C(79) + C(136) <= 1
C(79) + C(148) <= 1
C(79) + C(158) <= 1
C(80) + C(81) <= 1
C(80) + C(88) <= 1
C(80) + C(93) <= 1
C(80) + C(111) <= 1
C(80) + C(116) <= 1
C(80) + C(133) <= 1
C(80) + C(137) <= 1
C(80) + C(146) <= 1
C(81) + C(84) <= 1
C(81) + C(85) <= 1
C(81) + C(88) <= 1
C(81) + C(102) <= 1
C(81) + C(109) <= 1
C(81) + C(144) <= 1
C(81) + C(150) <= 1
C(81) + C(156) <= 1
C(81) + C(158) <= 1
C(82) + C(87) <= 1
C(82) + C(90) <= 1
C(82) + C(101) <= 1
C(82) + C(105) <= 1
C(82) + C(110) <= 1
C(82) + C(111) <= 1
C(82) + C(119) <= 1
C(82) + C(123) <= 1
C(82) + C(125) <= 1
C(82) + C(129) <= 1
C(82) + C(134) <= 1
C(82) + C(141) <= 1
C(82) + C(156) <= 1
C(82) + C(159) <= 1
C(83) + C(120) <= 1
C(83) + C(137) <= 1
C(83) + C(139) <= 1
C(83) + C(148) <= 1
C(83) + C(149) <= 1
C(83) + C(151) <= 1
C(83) + C(159) <= 1
C(84) + C(90) <= 1
C(84) + C(96) <= 1
C(84) + C(97) <= 1
C(84) + C(99) <= 1
C(84) + C(108) <= 1
C(84) + C(110) <= 1
C(84) + C(128) <= 1
C(84) + C(135) <= 1
C(84) + C(138) <= 1
C(84) + C(150) <= 1
C(84) + C(152) <= 1
C(84) + C(161) <= 1
C(84) + C(163) <= 1
C(85) + C(94) <= 1
C(85) + C(104) <= 1
C(85) + C(108) <= 1
C(85) + C(111) <= 1
C(85) + C(129) <= 1
C(85) + C(134) <= 1
C(85) + C(136) <= 1
C(85) + C(137) <= 1
C(85) + C(138) <= 1
C(85) + C(147) <= 1
C(85) + C(148) <= 1
C(85) + C(149) <= 1
C(85) + C(161) <= 1
C(85) + C(163) <= 1
C(86) + C(100) <= 1
C(86) + C(109) <= 1
C(86) + C(111) <= 1
C(86) + C(114) <= 1
C(86) + C(125) <= 1
C(86) + C(131) <= 1
C(86) + C(139) <= 1
C(86) + C(149) <= 1
C(87) + C(94) <= 1
C(87) + C(103) <= 1
C(87) + C(104) <= 1
C(87) + C(148) <= 1
C(88) + C(92) <= 1
C(88) + C(106) <= 1
C(88) + C(112) <= 1
C(88) + C(113) <= 1
C(88) + C(139) <= 1
C(89) + C(102) <= 1
C(89) + C(113) <= 1
C(89) + C(115) <= 1
C(89) + C(157) <= 1
C(90) + C(120) <= 1
C(90) + C(134) <= 1
C(90) + C(141) <= 1
C(90) + C(152) <= 1
C(91) + C(94) <= 1
C(91) + C(102) <= 1
C(91) + C(117) <= 1
C(91) + C(119) <= 1
C(91) + C(121) <= 1
C(91) + C(123) <= 1
C(91) + C(126) <= 1
C(91) + C(127) <= 1
C(91) + C(132) <= 1
C(91) + C(133) <= 1
C(91) + C(134) <= 1
C(91) + C(148) <= 1
C(91) + C(159) <= 1
C(91) + C(161) <= 1
C(92) + C(101) <= 1
C(92) + C(103) <= 1
C(92) + C(104) <= 1
C(92) + C(125) <= 1
C(92) + C(162) <= 1
C(93) + C(98) <= 1
C(93) + C(119) <= 1
C(93) + C(123) <= 1
C(93) + C(139) <= 1
C(93) + C(142) <= 1
C(93) + C(146) <= 1
C(93) + C(158) <= 1
C(93) + C(159) <= 1
C(94) + C(102) <= 1
C(94) + C(107) <= 1
C(94) + C(120) <= 1
C(94) + C(147) <= 1
C(95) + C(101) <= 1
C(95) + C(105) <= 1
C(95) + C(108) <= 1
C(95) + C(111) <= 1
C(95) + C(112) <= 1
C(95) + C(128) <= 1
C(95) + C(138) <= 1
C(95) + C(139) <= 1
C(95) + C(141) <= 1
C(95) + C(142) <= 1
C(95) + C(144) <= 1
C(95) + C(152) <= 1
C(95) + C(156) <= 1
C(95) + C(163) <= 1
C(96) + C(106) <= 1
C(96) + C(108) <= 1
C(96) + C(112) <= 1
C(96) + C(122) <= 1
C(96) + C(128) <= 1
C(96) + C(144) <= 1
C(96) + C(155) <= 1
C(96) + C(160) <= 1
C(97) + C(102) <= 1
C(97) + C(140) <= 1
C(97) + C(143) <= 1
C(98) + C(106) <= 1
C(98) + C(109) <= 1
C(98) + C(111) <= 1
C(98) + C(112) <= 1
C(98) + C(115) <= 1
C(98) + C(119) <= 1
C(98) + C(122) <= 1
C(98) + C(125) <= 1
C(98) + C(126) <= 1
C(98) + C(139) <= 1
C(98) + C(144) <= 1
C(98) + C(146) <= 1
C(98) + C(150) <= 1
C(98) + C(155) <= 1
C(98) + C(161) <= 1
C(99) + C(105) <= 1
C(99) + C(114) <= 1
C(99) + C(123) <= 1
C(99) + C(126) <= 1
C(99) + C(130) <= 1
C(99) + C(138) <= 1
C(99) + C(141) <= 1
C(99) + C(151) <= 1
C(99) + C(160) <= 1
C(100) + C(106) <= 1
C(100) + C(113) <= 1
C(100) + C(120) <= 1
C(100) + C(121) <= 1
C(100) + C(129) <= 1
C(100) + C(136) <= 1
C(100) + C(140) <= 1
C(101) + C(113) <= 1
C(101) + C(128) <= 1
C(101) + C(137) <= 1
C(101) + C(148) <= 1
C(101) + C(162) <= 1
C(102) + C(106) <= 1
C(102) + C(111) <= 1
C(102) + C(112) <= 1
C(102) + C(114) <= 1
C(102) + C(133) <= 1
C(102) + C(137) <= 1
C(102) + C(141) <= 1
C(102) + C(145) <= 1
C(102) + C(146) <= 1
C(102) + C(158) <= 1
C(102) + C(159) <= 1
C(102) + C(160) <= 1
C(103) + C(121) <= 1
C(103) + C(127) <= 1
C(103) + C(130) <= 1
C(103) + C(133) <= 1
C(103) + C(134) <= 1
C(103) + C(140) <= 1
C(103) + C(143) <= 1
C(103) + C(147) <= 1
C(103) + C(151) <= 1
C(103) + C(154) <= 1
C(103) + C(156) <= 1
C(103) + C(158) <= 1
C(103) + C(159) <= 1
C(104) + C(109) <= 1
C(104) + C(119) <= 1
C(104) + C(120) <= 1
C(104) + C(132) <= 1
C(104) + C(148) <= 1
C(104) + C(159) <= 1
C(105) + C(112) <= 1
C(105) + C(119) <= 1
C(105) + C(124) <= 1
C(105) + C(131) <= 1
C(105) + C(136) <= 1
C(105) + C(139) <= 1
C(105) + C(143) <= 1
C(106) + C(112) <= 1
C(106) + C(120) <= 1
C(106) + C(130) <= 1
C(106) + C(131) <= 1
C(106) + C(132) <= 1
C(106) + C(138) <= 1
C(106) + C(142) <= 1
C(106) + C(146) <= 1
C(107) + C(122) <= 1
C(107) + C(126) <= 1
C(107) + C(134) <= 1
C(107) + C(150) <= 1
C(108) + C(109) <= 1
C(108) + C(112) <= 1
C(108) + C(122) <= 1
C(108) + C(128) <= 1
C(108) + C(138) <= 1
C(108) + C(139) <= 1
C(108) + C(146) <= 1
C(108) + C(148) <= 1
C(109) + C(115) <= 1
C(109) + C(120) <= 1
C(109) + C(127) <= 1
C(109) + C(130) <= 1
C(109) + C(132) <= 1
C(109) + C(148) <= 1
C(110) + C(115) <= 1
C(110) + C(126) <= 1
C(110) + C(127) <= 1
C(110) + C(130) <= 1
C(110) + C(131) <= 1
C(110) + C(138) <= 1
C(110) + C(141) <= 1
C(110) + C(156) <= 1
C(111) + C(115) <= 1
C(111) + C(133) <= 1
C(111) + C(142) <= 1
C(111) + C(147) <= 1
C(111) + C(151) <= 1
C(111) + C(158) <= 1
C(111) + C(159) <= 1
C(111) + C(163) <= 1
C(112) + C(118) <= 1
C(112) + C(122) <= 1
C(112) + C(128) <= 1
C(112) + C(151) <= 1
C(113) + C(119) <= 1
C(113) + C(138) <= 1
C(113) + C(151) <= 1
C(113) + C(158) <= 1
C(114) + C(116) <= 1
C(114) + C(118) <= 1
C(114) + C(119) <= 1
C(114) + C(129) <= 1
C(114) + C(130) <= 1
C(114) + C(140) <= 1
C(114) + C(146) <= 1
C(114) + C(148) <= 1
C(114) + C(157) <= 1
C(114) + C(158) <= 1
C(115) + C(121) <= 1
C(115) + C(122) <= 1
C(115) + C(123) <= 1
C(115) + C(132) <= 1
C(115) + C(135) <= 1
C(115) + C(139) <= 1
C(115) + C(152) <= 1
C(116) + C(133) <= 1
C(116) + C(161) <= 1
C(117) + C(145) <= 1
C(117) + C(147) <= 1
C(117) + C(155) <= 1
C(118) + C(121) <= 1
C(118) + C(127) <= 1
C(118) + C(130) <= 1
C(118) + C(140) <= 1
C(119) + C(120) <= 1
C(119) + C(127) <= 1
C(119) + C(140) <= 1
C(119) + C(142) <= 1
C(119) + C(150) <= 1
C(120) + C(121) <= 1
C(120) + C(135) <= 1
C(120) + C(141) <= 1
C(120) + C(152) <= 1
C(120) + C(154) <= 1
C(121) + C(141) <= 1
C(122) + C(127) <= 1
C(122) + C(141) <= 1
C(122) + C(142) <= 1
C(122) + C(148) <= 1
C(123) + C(126) <= 1
C(123) + C(151) <= 1
C(123) + C(153) <= 1
C(123) + C(161) <= 1
C(124) + C(135) <= 1
C(124) + C(151) <= 1
C(124) + C(152) <= 1
C(124) + C(155) <= 1
C(125) + C(128) <= 1
C(125) + C(159) <= 1
C(126) + C(128) <= 1
C(126) + C(131) <= 1
C(126) + C(133) <= 1
C(126) + C(138) <= 1
C(126) + C(154) <= 1
C(126) + C(163) <= 1
C(127) + C(141) <= 1
C(127) + C(142) <= 1
C(127) + C(146) <= 1
C(127) + C(152) <= 1
C(128) + C(139) <= 1
C(129) + C(137) <= 1
C(129) + C(158) <= 1
C(130) + C(162) <= 1
C(131) + C(149) <= 1
C(131) + C(158) <= 1
C(132) + C(147) <= 1
C(132) + C(148) <= 1
C(132) + C(159) <= 1
C(133) + C(138) <= 1
C(133) + C(139) <= 1
C(134) + C(136) <= 1
C(134) + C(138) <= 1
C(134) + C(140) <= 1
C(134) + C(149) <= 1
C(134) + C(150) <= 1
C(135) + C(143) <= 1
C(135) + C(150) <= 1
C(135) + C(151) <= 1
C(135) + C(153) <= 1
C(135) + C(154) <= 1
C(136) + C(141) <= 1
C(136) + C(144) <= 1
C(136) + C(145) <= 1
C(136) + C(148) <= 1
C(136) + C(149) <= 1
C(137) + C(144) <= 1
C(137) + C(145) <= 1
C(137) + C(148) <= 1
C(137) + C(162) <= 1
C(138) + C(148) <= 1
C(138) + C(149) <= 1
C(138) + C(153) <= 1
C(138) + C(155) <= 1
C(138) + C(161) <= 1
C(139) + C(145) <= 1
C(139) + C(148) <= 1
C(139) + C(155) <= 1
C(140) + C(141) <= 1
C(140) + C(147) <= 1
C(140) + C(149) <= 1
C(140) + C(157) <= 1
C(140) + C(158) <= 1
C(141) + C(154) <= 1
C(141) + C(155) <= 1
C(141) + C(161) <= 1
C(142) + C(145) <= 1
C(142) + C(152) <= 1
C(143) + C(144) <= 1
C(143) + C(153) <= 1
C(143) + C(154) <= 1
C(145) + C(149) <= 1
C(145) + C(158) <= 1
C(146) + C(155) <= 1
C(146) + C(163) <= 1
C(147) + C(153) <= 1
C(147) + C(154) <= 1
C(148) + C(161) <= 1
C(150) + C(159) <= 1
C(150) + C(160) <= 1
C(151) + C(156) <= 1
C(153) + C(157) <= 1
C(154) + C(156) <= 1
C(155) + C(159) <= 1
C(159) + C(162) <= 1
C(161) + C(163) <= 1
binary 
C(1)
C(2)
C(3)
C(4)
C(5)
C(6)
C(7)
C(8)
C(9)
C(10)
C(11)
C(12)
C(13)
C(14)
C(15)
C(16)
C(17)
C(18)
C(19)
C(20)
C(21)
C(22)
C(23)
C(24)
C(25)
C(26)
C(27)
C(28)
C(29)
C(30)
C(31)
C(32)
C(33)
C(34)
C(35)
C(36)
C(37)
C(38)
C(39)
C(40)
C(41)
C(42)
C(43)
C(44)
C(45)
C(46)
C(47)
C(48)
C(49)
C(50)
C(51)
C(52)
C(53)
C(54)
C(55)
C(56)
C(57)
C(58)
C(59)
C(60)
C(61)
C(62)
C(63)
C(64)
C(65)
C(66)
C(67)
C(68)
C(69)
C(70)
C(71)
C(72)
C(73)
C(74)
C(75)
C(76)
C(77)
C(78)
C(79)
C(80)
C(81)
C(82)
C(83)
C(84)
C(85)
C(86)
C(87)
C(88)
C(89)
C(90)
C(91)
C(92)
C(93)
C(94)
C(95)
C(96)
C(97)
C(98)
C(99)
C(100)
C(101)
C(102)
C(103)
C(104)
C(105)
C(106)
C(107)
C(108)
C(109)
C(110)
C(111)
C(112)
C(113)
C(114)
C(115)
C(116)
C(117)
C(118)
C(119)
C(120)
C(121)
C(122)
C(123)
C(124)
C(125)
C(126)
C(127)
C(128)
C(129)
C(130)
C(131)
C(132)
C(133)
C(134)
C(135)
C(136)
C(137)
C(138)
C(139)
C(140)
C(141)
C(142)
C(143)
C(144)
C(145)
C(146)
C(147)
C(148)
C(149)
C(150)
C(151)
C(152)
C(153)
C(154)
C(155)
C(156)
C(157)
C(158)
C(159)
C(160)
C(161)
C(162)
C(163)
end